p cnf 7230 16
2378 4722 4728 4732 -5232 0
-2378 -5233 0
-4722 -5233 0
-4764 -5234 -5235 0
4764 -5236 0
-4728 -5233 0
5237 5238 0
4782 -5238 0
-4782 -5237 0
5235 5236 0
5232 5233 0
5230 5231 0
4772 -5231 0
-4772 -5230 0
5234 -5236 0
-4732 -5233 0
